InboundTrucks  = 20;
OutboundTrucks = 13;
InboundDoors   = 5;
OutboundDoors  = 5;
ReleaseTime    = [81,14,3,94,35,31,28,17,94,13,86,94,114,69,11,75,54,4,3,11];
UnloadTime     = [23,24,42,11,45,22,44,36,24,38,27,10,20,37,31,27,19,23,31,16];
LoadTime       = [7,17,8,16,16,24,13,30,6,28,19,22,8];
TransferTime   = [| 0,0,0,0,0,0,0,0,24,0,0,0,0 | 0,0,0,32,27,0,0,50,25,0,0,0,0 | 30,0,0,12,0,0,46,0,0,0,0,0,0 | 0,45,0,0,0,0,0,0,41,13,0,20,0 | 0,34,0,0,0,0,0,0,0,0,0,0,0 | 10,0,0,0,0,16,0,0,0,0,20,0,0 | 0,30,0,33,0,0,0,46,0,41,0,0,0 | 40,0,43,0,0,44,0,0,0,0,0,0,0 | 0,14,0,0,24,50,14,0,0,25,0,0,0 | 0,0,0,40,0,16,0,0,0,0,16,0,0 | 22,38,21,0,14,0,0,0,44,0,0,0,0 | 41,0,0,0,0,0,0,0,0,0,0,0,0 | 0,28,13,0,0,0,47,0,0,0,42,21,14 | 0,17,0,0,0,15,0,0,0,0,30,35,29 | 0,0,0,0,0,0,23,0,32,0,0,0,0 | 0,0,0,0,45,0,0,0,17,0,0,28,0 | 0,50,0,0,0,0,50,0,0,18,0,0,0 | 0,0,14,0,0,12,0,0,18,0,0,0,0 | 0,25,0,0,0,0,0,0,0,20,0,0,0 | 31,0,0,0,0,20,0,12,0,39,0,0,0 |];
